\Generated by Cardinal Operations

Maximize
   5 x(1) + 10 x(2) + 8 x(3) + 7 x(4) 
Subject To
 wood_resource: 12 x(1) + 20 x(2) + 15 x(3) + 10 x(4) <= 890
 steel_resource: 6 x(1) + 3 x(2) + 5 x(3) + 4 x(4) <= 500
 truck_train_exclusive: y(1) + y(4) <= 1
 boat_requires_plane: y(3) - y(2) <= 0
 boat_not_exceed_train: x(3) - x(4) <= 0
 quantity_upper_bound_1: - 74 y(1) + x(1) <= 0
 quantity_upper_bound_2: - 44 y(2) + x(2) <= 0
 quantity_upper_bound_3: - 59 y(3) + x(3) <= 0
 quantity_upper_bound_4: - 89 y(4) + x(4) <= 0
 production_activation_1: x(1) - y(1) >= 0
 production_activation_2: x(2) - y(2) >= 0
 production_activation_3: x(3) - y(3) >= 0
 production_activation_4: x(4) - y(4) >= 0
Generals
 x(1)  x(2)  x(3)  x(4)  
Binaries
 y(1)  y(2)  y(3)  y(4)  
END

